52 1326 52
0 1 666
0 2 281
0 3 396
0 4 291
0 5 326
0 6 641
0 7 427
0 8 600
0 9 561
0 10 1041
0 11 655
0 12 975
0 13 1121
0 14 299
0 15 260
0 16 430
0 17 162
0 18 305
0 19 210
0 20 287
0 21 46
0 22 181
0 23 275
0 24 410
0 25 729
0 26 799
0 27 707
0 28 406
0 29 360
0 30 146
0 31 91
0 32 827
0 33 135
0 34 122
0 35 125
0 36 208
0 37 240
0 38 166
0 39 209
0 40 395
0 41 566
0 42 464
0 43 154
0 44 240
0 45 280
0 46 791
0 47 267
0 48 64
0 49 217
0 50 789
0 51 1220
1 2 649
1 3 1047
1 4 945
1 5 978
1 6 45
1 7 956
1 8 1135
1 9 1133
1 10 1639
1 11 1259
1 12 1440
1 13 1516
1 14 958
1 15 724
1 16 495
1 17 595
1 18 843
1 19 564
1 20 392
1 21 636
1 22 510
1 23 922
1 24 1029
1 25 1192
1 26 1302
1 27 1244
1 28 635
1 29 390
1 30 541
1 31 730
1 32 1489
1 33 782
1 34 777
1 35 785
1 36 858
1 37 897
1 38 828
1 39 870
1 40 896
1 41 103
1 42 1124
1 43 745
1 44 823
1 45 859
1 46 1151
1 47 910
1 48 728
1 49 596
1 50 1422
1 51 1716
2 3 604
2 4 509
2 5 543
2 6 611
2 7 308
2 8 486
2 9 487
2 10 1267
2 11 891
2 12 1248
2 13 1400
2 14 505
2 15 537
2 16 217
2 17 135
2 18 207
2 19 441
2 20 289
2 21 241
2 22 361
2 23 506
2 24 653
2 25 1006
2 26 1068
2 27 970
2 28 651
2 29 504
2 30 209
2 31 245
2 32 903
2 33 394
2 34 374
2 35 368
2 36 447
2 37 462
2 38 392
2 39 427
2 40 247
2 41 550
2 42 557
2 43 434
2 44 220
2 45 553
2 46 1072
2 47 505
2 48 288
2 49 463
2 50 995
2 51 1484
3 4 104
3 5 70
3 6 1026
3 7 525
3 8 611
3 9 534
3 10 663
3 11 294
3 12 711
3 13 897
3 14 100
3 15 384
3 16 800
3 17 532
3 18 475
3 19 501
3 20 681
3 21 437
3 22 538
3 23 125
3 24 109
3 25 516
3 26 527
3 27 417
3 28 580
3 29 690
3 30 541
3 31 371
3 32 517
3 33 267
3 34 275
3 35 271
3 36 190
3 37 155
3 38 230
3 39 188
3 40 545
3 41 950
3 42 245
3 43 307
3 44 411
3 45 231
3 46 660
3 47 137
3 48 345
3 49 478
3 50 397
3 51 909
4 5 35
4 6 924
4 7 471
4 8 584
4 9 513
4 10 761
4 11 382
4 12 769
4 13 944
4 14 25
4 15 309
4 16 700
4 17 430
4 18 401
4 19 407
4 20 577
4 21 332
4 22 437
4 23 32
4 24 150
4 25 552
4 26 584
4 27 479
4 28 510
4 29 594
4 30 437
4 31 270
4 32 590
4 33 163
4 34 171
4 35 166
4 36 87
4 37 51
4 38 127
4 39 85
4 40 480
4 41 848
4 42 267
4 43 212
4 44 331
4 45 171
4 46 674
4 47 47
4 48 242
4 49 387
4 50 500
4 51 984
5 6 957
5 7 492
5 8 596
5 9 523
5 10 726
5 11 349
5 12 744
5 13 923
5 14 40
5 15 329
5 16 735
5 17 466
5 18 428
5 19 435
5 20 612
5 21 368
5 22 469
5 23 57
5 24 124
5 25 533
5 26 559
5 27 452
5 28 528
5 29 624
5 30 472
5 31 305
5 32 568
5 33 197
5 34 206
5 35 201
5 36 121
5 37 86
5 38 162
5 39 120
5 40 504
5 41 881
5 42 260
5 43 241
5 44 360
5 45 182
5 46 662
5 47 71
5 48 277
5 49 414
5 50 465
5 51 955
6 7 918
6 8 1096
6 9 1096
6 10 1627
6 11 1245
6 12 1440
6 13 1522
6 14 935
6 15 714
6 16 451
6 17 562
6 18 807
6 19 552
6 20 362
6 21 609
6 22 491
6 23 901
6 24 1012
6 25 1190
6 26 1298
6 27 1237
6 28 637
6 29 386
6 30 512
6 31 701
6 32 1460
6 33 760
6 34 754
6 35 762
6 36 836
6 37 875
6 38 804
6 39 847
6 40 858
6 41 76
6 42 1095
6 43 727
6 44 789
6 45 844
6 46 1157
6 47 890
6 48 702
6 49 585
6 50 1405
6 51 1715
7 8 183
7 9 180
7 10 1145
7 11 812
7 12 1234
7 13 1414
7 14 453
7 15 661
7 16 507
7 17 381
7 18 126
7 19 636
7 20 580
7 21 415
7 22 587
7 23 487
7 24 616
7 25 1023
7 26 1049
7 27 941
7 28 831
7 29 759
7 30 457
7 31 339
7 32 645
7 33 455
7 34 435
7 35 422
7 36 461
7 37 446
7 38 414
7 39 422
7 40 64
7 41 856
7 42 359
7 43 530
7 44 187
7 45 599
7 46 1136
7 47 495
7 48 383
7 49 644
7 50 860
7 51 1430
8 9 83
8 10 1166
8 11 874
8 12 1317
8 13 1507
8 14 561
8 15 818
8 16 670
8 17 565
8 18 308
8 19 810
8 20 763
8 21 593
8 22 767
8 23 606
8 24 714
8 25 1126
8 26 1135
8 27 1024
8 28 998
8 29 940
8 30 640
8 31 510
8 32 570
8 33 607
8 34 589
8 35 575
8 36 596
8 37 572
8 38 558
8 39 555
8 40 239
8 41 1036
8 42 390
8 43 686
8 44 361
8 45 734
8 46 1257
8 47 618
8 48 551
8 49 815
8 50 883
8 51 1487
9 10 1083
9 11 792
9 12 1237
9 13 1428
9 14 490
9 15 764
9 16 686
9 17 548
9 18 291
9 19 770
9 20 751
9 21 560
9 22 735
9 23 538
9 24 639
9 25 1050
9 26 1055
9 27 945
9 28 950
9 29 912
9 30 619
9 31 471
9 32 501
9 33 552
9 34 536
9 35 521
9 36 534
9 37 506
9 38 500
9 39 492
9 40 244
9 41 1032
9 42 308
9 43 632
9 44 329
9 45 670
9 46 1185
9 47 550
9 48 507
9 49 772
9 50 800
9 51 1404
10 11 387
10 12 443
10 13 620
10 14 762
10 15 915
10 16 1461
10 17 1190
10 18 1124
10 19 1076
10 20 1314
10 21 1086
10 22 1144
10 23 770
10 24 631
10 25 541
10 26 417
10 27 418
10 28 1042
10 29 1251
10 30 1187
10 31 1031
10 32 706
10 33 906
10 34 920
10 35 920
10 36 835
10 37 810
10 38 885
10 39 846
10 40 1180
10 41 1552
10 42 789
10 43 913
10 44 1068
10 45 787
10 46 705
10 47 775
10 48 1000
10 49 1043
10 50 285
10 51 399
11 12 452
11 13 653
11 14 388
11 15 538
11 16 1078
11 17 807
11 18 769
11 19 694
11 20 927
11 21 700
11 22 758
11 23 388
11 24 245
11 25 335
11 26 283
11 27 182
11 28 688
11 29 875
11 30 800
11 31 651
11 32 584
11 33 520
11 34 535
11 35 536
11 36 451
11 37 430
11 38 503
11 39 465
11 40 836
11 41 1170
11 42 484
11 43 526
11 44 705
11 45 401
11 46 517
11 47 391
11 48 617
11 49 663
11 50 188
11 51 619
12 13 206
12 14 784
12 15 759
12 16 1400
12 17 1137
12 18 1169
12 19 920
12 20 1195
12 21 1020
12 22 1008
12 23 760
12 24 620
12 25 254
12 26 185
12 27 294
12 28 805
12 29 1056
12 30 1104
12 31 1004
12 32 1010
12 33 854
12 34 874
12 35 881
12 36 807
12 37 804
12 38 863
12 39 836
12 40 1248
12 41 1371
12 42 931
12 43 822
12 44 1098
12 45 696
12 46 324
12 47 756
12 48 959
12 49 885
12 50 540
12 51 279
13 14 962
13 15 884
13 16 1534
13 17 1281
13 18 1341
13 19 1035
13 20 1313
13 21 1165
13 22 1127
13 23 931
13 24 799
13 25 396
13 26 374
13 27 484
13 28 887
13 29 1146
13 30 1239
13 31 1161
13 32 1216
13 33 1010
13 34 1031
13 35 1039
13 36 971
13 37 975
13 38 1026
13 39 1004
13 40 1423
13 41 1457
13 42 1125
13 43 966
13 44 1268
13 45 849
13 46 365
13 47 925
13 48 1114
13 49 1000
13 50 745
13 51 319
14 15 332
14 16 700
14 17 432
14 18 388
14 19 425
14 20 586
14 21 339
14 22 451
14 23 56
14 24 164
14 25 571
14 26 599
14 27 492
14 28 533
14 29 612
14 30 443
14 31 270
14 32 569
14 33 176
14 34 181
14 35 175
14 36 103
14 37 61
14 38 133
14 39 90
14 40 464
14 41 860
14 42 242
14 43 231
14 44 320
14 45 196
14 46 696
14 47 72
14 48 246
14 49 406
14 50 497
14 51 995
15 16 651
15 17 408
15 18 549
15 19 165
15 20 435
15 21 297
15 22 249
15 23 278
15 24 326
15 25 506
15 26 598
15 27 526
15 28 201
15 29 337
15 30 357
15 31 331
15 32 897
15 33 211
15 34 229
15 35 243
15 36 244
15 37 284
15 38 265
15 39 282
15 40 641
15 41 640
15 42 570
15 43 132
15 44 476
15 45 156
15 46 539
15 47 262
15 48 282
15 49 130
15 50 710
15 51 1023
16 17 272
16 18 421
16 19 512
16 20 253
16 21 383
16 22 418
16 23 691
16 24 834
16 25 1149
16 26 1226
16 27 1136
16 28 707
16 29 492
16 30 296
16 31 430
16 32 1120
16 33 561
16 34 545
16 35 543
16 36 627
16 37 650
16 38 576
16 39 615
16 40 443
16 41 408
16 42 773
16 43 579
16 44 437
16 45 708
16 46 1188
16 47 687
16 48 462
16 49 544
16 50 1197
16 51 1649
17 18 258
17 19 306
17 20 205
17 21 116
17 22 229
17 23 420
17 24 563
17 25 890
17 26 960
17 27 867
17 28 517
17 29 385
17 30 80
17 31 163
17 32 903
17 33 290
17 34 273
17 35 271
17 36 356
17 37 380
17 38 305
17 39 345
17 40 330
17 41 493
17 42 541
17 43 315
17 44 228
17 45 441
17 46 946
17 47 416
17 48 190
17 49 329
17 50 929
17 51 1381
18 19 512
18 20 461
18 21 290
18 22 461
18 23 410
18 24 551
18 25 945
18 26 985
18 27 879
18 28 711
18 29 633
18 30 332
18 31 220
18 32 701
18 33 351
18 34 330
18 35 318
18 36 371
18 37 366
18 38 319
18 39 336
18 40 92
18 41 742
18 42 368
18 43 420
18 44 75
18 45 504
18 46 1045
18 47 415
18 48 267
18 49 522
18 50 843
18 51 1382
19 20 279
19 21 224
19 22 94
19 23 378
19 24 467
19 25 666
19 26 762
19 27 691
19 28 210
19 29 189
19 30 236
19 31 300
19 32 990
19 33 257
19 34 262
19 35 275
19 36 323
19 37 366
19 38 314
19 39 348
19 40 601
19 41 477
19 42 638
19 43 194
19 44 450
19 45 295
19 46 680
19 47 365
19 48 264
19 49 35
19 50 859
19 51 1186
20 21 251
20 22 187
20 23 558
20 24 685
20 25 941
20 26 1031
20 27 952
20 28 459
20 29 242
20 30 150
20 31 340
20 32 1098
20 33 416
20 34 406
20 35 411
20 36 492
20 37 527
20 38 453
20 39 496
20 40 525
20 41 290
20 42 733
20 43 402
20 44 433
20 45 530
20 46 958
20 47 549
20 48 344
20 49 313
20 50 1072
20 51 1457
21 22 175
21 23 318
21 24 455
21 25 774
21 26 844
21 27 753
21 28 429
21 29 353
21 30 104
21 31 97
21 32 853
21 33 180
21 34 165
21 35 167
21 36 251
21 37 281
21 38 206
21 39 249
21 40 378
21 41 535
21 42 488
21 43 199
21 44 233
21 45 326
21 46 832
21 47 311
21 48 94
21 49 237
21 50 832
21 51 1266
22 23 412
22 24 522
22 25 754
22 26 846
22 27 770
22 28 296
22 29 179
22 30 152
22 31 267
22 32 1002
22 33 275
22 34 273
22 35 283
22 36 349
22 37 390
22 38 326
22 39 366
22 40 545
22 41 415
22 42 641
22 43 236
22 44 407
22 45 357
22 46 774
22 47 401
22 48 244
22 49 127
22 50 914
22 51 1271
23 24 147
23 25 537
23 26 576
23 27 472
23 28 478
23 29 567
23 30 421
23 31 263
23 32 621
23 33 142
23 34 153
23 35 151
23 36 67
23 37 45
23 38 115
23 39 79
23 40 492
23 41 825
23 42 298
23 43 184
23 44 338
23 45 140
23 46 653
23 47 16
23 48 230
23 49 358
23 50 515
23 51 982
24 25 412
24 26 435
24 27 329
24 28 509
24 29 654
24 30 556
24 31 409
24 32 606
24 33 275
24 34 290
24 35 292
24 36 207
24 37 191
24 38 261
24 39 226
24 40 628
24 41 936
24 42 354
24 43 286
24 44 481
24 45 173
24 46 551
24 47 148
24 48 373
24 49 439
24 50 393
24 51 835
25 26 126
25 27 159
25 28 559
25 29 805
25 30 853
25 31 766
25 32 917
25 33 614
25 34 635
25 35 644
25 36 576
25 37 580
25 38 630
25 39 609
25 40 1029
25 41 1120
25 42 756
25 43 575
25 44 872
25 45 454
25 46 186
25 47 531
25 48 719
25 49 631
25 50 496
25 51 525
26 27 110
26 28 674
26 29 912
26 30 931
26 31 823
26 32 862
26 33 674
26 34 694
26 35 700
26 36 624
26 37 620
26 38 680
26 39 653
26 40 1063
26 41 1226
26 42 751
26 43 647
26 44 914
26 45 519
26 46 292
26 47 572
26 48 779
26 49 726
26 50 410
26 51 426
27 28 630
27 29 853
27 30 844
27 31 725
27 32 767
27 33 579
27 34 598
27 35 603
27 36 524
27 37 517
27 38 580
27 39 550
27 40 956
27 41 1163
27 42 641
27 43 559
27 44 809
27 45 429
27 46 344
27 47 470
27 48 683
27 49 656
27 50 337
27 51 514
28 29 260
28 30 445
28 31 492
28 32 1096
28 33 402
28 34 416
28 35 431
28 36 444
28 37 484
28 38 459
28 39 481
28 40 802
28 41 571
28 42 771
28 43 322
28 44 644
28 45 349
28 46 523
28 47 462
28 48 448
28 49 191
28 50 871
28 51 1082
29 30 305
29 31 447
29 32 1173
29 33 439
29 34 441
29 35 453
29 36 509
29 37 552
29 38 494
29 39 532
29 40 713
29 41 315
29 42 816
29 43 383
29 44 583
29 45 481
29 46 782
29 47 553
29 48 423
29 49 215
29 50 1044
29 51 1330
30 31 190
30 32 948
30 33 281
30 34 268
30 35 271
30 36 354
30 37 386
30 38 310
30 39 353
30 40 409
30 41 439
30 42 583
30 43 285
30 44 293
30 45 416
30 46 896
30 47 414
30 48 198
30 49 262
30 50 936
30 51 1356
31 32 759
31 33 151
31 34 130
31 35 123
31 36 203
31 37 221
31 38 148
31 39 186
31 40 311
31 41 628
31 42 394
31 43 207
31 44 151
31 45 312
31 46 845
31 47 261
31 48 50
31 49 306
31 50 767
31 51 1238
32 33 734
32 34 732
32 35 720
32 36 669
32 37 625
32 38 679
32 39 642
32 40 704
32 41 1387
32 42 365
32 43 799
32 44 688
32 45 747
32 46 1095
32 47 636
32 48 764
32 49 974
32 50 475
32 51 1089
33 34 21
33 35 34
33 36 76
33 37 115
33 38 59
33 39 92
33 40 442
33 41 684
33 42 382
33 43 80
33 44 276
33 45 161
33 46 697
33 47 133
33 48 105
33 49 244
33 50 656
33 51 1093
34 35 15
34 36 86
34 37 121
34 38 53
34 39 93
34 40 421
34 41 678
34 42 376
34 43 96
34 44 256
34 45 182
34 46 718
34 47 146
34 48 85
34 49 252
34 50 668
34 51 1112
35 36 85
35 37 115
35 38 43
35 39 85
35 40 408
35 41 686
35 42 364
35 43 111
35 44 243
35 45 191
35 46 730
35 47 145
35 48 81
35 49 266
35 50 665
35 51 1116
36 37 43
36 38 56
36 39 41
36 40 458
36 41 760
36 42 327
36 43 130
36 44 297
36 45 139
36 46 676
36 47 60
36 48 166
36 49 305
36 50 581
36 51 1036
37 38 76
37 39 35
37 40 449
37 41 799
37 42 286
37 43 173
37 44 294
37 45 164
37 46 691
37 47 49
37 48 191
37 49 348
37 50 551
37 51 1026
38 39 43
38 40 407
38 41 729
38 42 324
38 43 136
38 44 244
38 45 186
38 46 726
38 47 113
38 48 115
38 49 302
38 50 626
38 51 1092
39 40 421
39 41 771
39 42 293
39 43 162
39 44 263
39 45 179
39 46 714
39 47 81
39 48 157
39 49 334
39 50 585
39 51 1060
40 41 796
40 42 402
40 43 512
40 44 166
40 45 593
40 46 1133
40 47 499
40 48 359
40 49 612
40 50 896
40 51 1453
41 42 1022
41 43 651
41 44 721
41 45 769
41 46 1093
41 47 814
41 48 627
41 49 510
41 50 1329
41 51 1645
42 43 455
42 44 337
42 45 437
42 46 904
42 47 313
42 48 400
42 49 626
42 50 504
42 51 1097
43 44 347
43 45 131
43 46 640
43 47 170
43 48 157
43 49 175
43 50 678
43 51 1071
44 45 430
44 46 970
44 47 343
44 48 196
44 49 457
44 50 790
44 51 1315
45 46 540
45 47 125
45 48 265
45 49 266
45 50 564
45 51 941
46 47 642
46 48 796
46 49 646
46 50 682
46 51 598
47 48 225
47 49 343
47 50 523
47 51 980
48 49 265
48 50 742
48 51 1197
49 50 830
49 51 1151
50 51 625
0
1
2
3
4
5
6
7
8
9
10
11
12
13
14
15
16
17
18
19
20
21
22
23
24
25
26
27
28
29
30
31
32
33
34
35
36
37
38
39
40
41
42
43
44
45
46
47
48
49
50
51
